InboundTrucks  = 80;
OutboundTrucks = 40;
InboundDoors   = 7;
OutboundDoors  = 7;
ReleaseTime    = [81,14,3,94,35,31,28,17,94,13,86,94,114,69,11,75,54,4,3,11,27,29,64,77,3,71,25,91,83,89,69,53,28,57,75,35,103,111,0,97,103,20,89,54,43,35,19,27,97,43,13,11,48,12,45,108,44,77,33,103,5,93,58,68,15,118,48,10,70,37,106,80,79,113,110,46,73,24,90,8];
UnloadTime     = [12,24,28,15,24,16,34,27,39,33,20,33,32,23,27,14,20,44,25,20,39,34,27,45,24,30,13,24,12,30,35,27,14,23,30,23,41,35,39,19,26,18,25,45,44,26,37,35,33,24,18,42,41,15,13,17,19,20,37,14,34,34,39,43,26,45,10,17,44,27,31,17,28,37,20,39,10,26,42,21];
LoadTime       = [21,8,25,14,25,21,24,11,9,16,29,10,22,29,21,5,24,15,20,5,8,16,30,14,12,6,12,23,7,7,28,20,7,29,22,29,9,9,26,20];
TransferTime   = [| 0,43,0,19,44,0,0,0,0,0,0,0,0,14,0,0,24,50,14,0,0,25,0,0,0,0,0,0,40,0,16,0,0,0,0,16,31,0,22,38 | 21,0,14,0,0,0,44,0,0,0,0,41,0,0,0,10,0,0,0,0,0,0,0,0,0,28,13,0,0,0,47,0,0,0,42,21,14,0,17,0 | 0,0,15,0,0,0,0,30,35,29,0,0,0,49,0,0,23,0,32,0,0,0,44,0,0,0,0,45,0,0,0,17,0,0,28,0,0,50,0,0 | 0,0,50,0,0,18,0,0,0,0,0,14,0,0,12,0,0,18,33,0,0,0,0,25,0,0,0,0,0,0,0,20,0,0,0,31,0,0,0,0 | 20,0,12,0,39,0,0,0,22,0,0,27,0,0,0,0,0,26,26,48,0,0,0,0,0,0,0,0,0,44,0,0,0,37,31,0,0,29,0,0 | 0,0,0,34,0,0,0,0,10,28,47,0,0,0,0,0,0,0,0,0,0,0,0,25,0,22,12,40,0,0,0,0,0,0,0,0,10,0,0,0 | 0,43,0,0,0,18,47,0,0,0,40,0,0,0,0,0,0,0,0,0,0,50,0,0,0,38,28,31,0,0,24,0,23,36,0,0,36,0,0,0 | 46,0,32,0,0,0,0,0,0,0,0,0,0,0,0,0,0,0,0,0,0,0,0,0,0,37,39,26,0,30,0,0,0,0,0,0,0,0,32,14 | 0,0,0,0,11,0,40,0,0,26,0,48,0,0,0,29,11,0,0,0,0,0,47,0,0,29,0,0,46,0,0,0,0,0,0,0,0,33,0,0 | 0,0,0,0,0,0,0,0,0,0,0,0,0,38,39,0,0,0,0,0,0,0,0,0,0,0,0,0,25,0,0,0,0,0,0,0,24,0,47,0 | 0,0,0,0,0,0,0,22,0,0,0,0,40,0,0,0,0,0,0,0,0,0,0,12,0,0,0,41,10,0,0,0,13,0,0,14,0,50,0,46 | 0,25,36,0,0,43,0,0,0,0,0,0,16,0,23,0,25,14,36,0,0,0,28,0,0,0,0,0,0,0,0,0,0,0,0,0,20,0,0,0 | 0,0,0,0,0,0,0,0,0,0,0,0,24,0,0,0,0,0,0,0,21,0,0,0,47,0,0,0,0,0,0,20,0,0,0,0,0,0,0,0 | 0,0,0,0,0,0,0,0,33,0,0,0,27,0,0,0,0,50,0,20,0,36,17,0,19,0,0,0,0,0,0,45,22,0,0,0,0,0,0,0 | 0,0,0,0,0,0,0,0,44,0,0,0,0,0,0,25,34,36,40,0,0,0,0,0,0,0,42,0,0,38,39,19,0,0,40,0,0,0,0,31 | 0,0,0,0,0,0,0,14,28,0,0,0,50,0,20,0,0,13,0,0,43,0,0,21,34,0,47,39,0,0,0,0,0,0,0,32,0,0,0,0 | 0,0,0,0,34,0,0,0,0,0,0,0,0,0,0,48,0,0,0,0,32,22,0,0,0,0,0,0,0,0,0,0,0,0,28,0,0,44,0,0 | 0,0,40,0,0,0,0,0,24,0,24,0,0,0,0,0,44,33,0,0,0,0,0,24,0,0,0,0,0,0,0,0,0,0,12,0,0,0,44,39 | 23,0,0,0,0,0,0,0,0,0,0,0,0,38,12,0,33,0,0,0,0,17,0,0,23,0,0,31,18,0,45,23,0,19,0,0,0,0,0,0 | 0,11,32,0,30,26,36,0,0,0,0,0,42,49,43,0,0,40,0,0,38,15,0,18,0,0,0,0,0,0,0,0,17,0,0,0,0,38,0,0 | 0,0,0,0,0,0,0,0,0,15,16,0,0,13,0,0,0,32,0,0,0,0,28,0,0,0,40,16,0,0,27,0,0,0,0,0,0,0,27,27 | 0,0,0,19,0,0,50,0,43,36,0,29,0,0,0,13,49,15,0,0,0,0,0,0,37,47,0,0,35,0,23,0,18,0,0,41,0,34,0,45 | 0,0,12,39,0,30,0,0,0,0,11,0,49,0,0,0,0,37,0,0,0,0,0,0,42,0,36,32,0,0,0,16,22,19,0,0,50,0,0,0 | 0,0,0,0,0,0,0,14,0,0,0,0,0,39,0,28,15,0,0,0,0,0,0,0,0,0,0,0,13,10,0,0,0,21,38,0,0,0,0,0 | 0,0,0,50,0,16,0,0,0,0,0,0,15,0,32,0,0,0,15,0,0,0,0,0,0,37,0,0,0,0,0,0,23,0,0,18,28,25,44,0 | 0,31,0,0,0,21,0,0,0,38,33,0,38,0,0,0,25,0,0,0,0,0,0,0,0,0,0,0,0,0,0,26,40,0,0,43,0,0,0,0 | 0,37,24,0,0,0,0,0,0,0,24,16,0,0,0,28,0,0,0,0,0,0,0,23,0,0,0,0,28,17,36,0,0,41,0,42,0,0,0,32 | 36,15,0,0,0,0,0,0,40,34,0,0,14,0,0,0,0,0,0,44,0,0,0,0,0,0,18,39,22,22,0,0,0,0,0,0,22,0,0,31 | 0,0,0,0,0,0,0,41,0,0,0,37,48,0,28,0,28,0,0,0,0,0,32,0,0,0,0,50,0,0,0,11,48,0,0,25,0,0,0,0 | 0,0,0,0,37,0,0,0,0,17,21,0,0,0,0,0,0,0,0,0,0,14,0,0,0,30,0,0,0,0,0,50,33,0,22,0,41,45,0,0 | 0,15,35,0,0,0,0,0,30,0,0,0,0,0,0,0,18,0,0,17,0,0,24,0,0,0,0,0,0,0,29,0,20,0,0,49,0,0,0,0 | 0,12,0,0,0,46,0,0,0,0,0,0,0,0,0,0,13,36,0,48,30,0,0,0,33,0,25,0,0,16,34,0,0,0,0,0,0,0,20,0 | 0,0,0,35,0,0,32,28,0,0,0,0,0,0,0,0,0,0,0,0,0,45,0,0,0,0,0,0,0,16,0,0,0,0,0,42,0,12,31,0 | 0,42,49,0,0,0,0,0,0,0,0,0,0,31,0,0,0,0,46,0,40,0,0,0,0,13,0,50,0,0,0,0,46,0,11,0,0,0,42,0 | 0,0,0,18,0,0,0,0,0,0,0,0,0,0,0,0,0,0,0,0,0,0,0,0,0,0,0,0,0,0,0,0,0,0,0,0,0,0,0,12 | 0,0,0,0,0,0,44,0,0,0,47,13,0,0,0,36,0,0,0,45,0,40,0,28,0,0,0,46,12,0,21,0,35,0,28,0,46,0,0,0 | 0,0,0,0,42,0,17,0,0,0,0,31,0,0,0,50,0,0,0,16,18,0,0,34,27,0,0,0,33,0,17,0,42,0,0,47,0,0,0,0 | 18,0,0,0,0,0,0,0,0,0,0,0,0,0,0,0,0,0,45,0,44,30,0,0,0,0,0,0,0,18,0,0,39,0,0,26,0,0,0,32 | 0,0,14,0,0,0,18,0,0,0,0,0,0,0,0,0,0,0,0,0,0,44,0,24,0,0,0,0,0,0,0,39,0,0,0,0,36,0,0,0 | 14,12,0,0,0,12,0,23,0,0,28,46,0,0,0,0,0,43,29,0,0,0,0,37,0,32,0,0,0,0,0,34,44,0,0,0,0,0,0,0 | 0,0,25,0,0,38,0,22,34,0,0,0,47,0,0,0,0,0,0,22,0,40,0,0,0,0,30,0,0,0,0,0,0,0,40,0,0,30,0,0 | 19,45,0,0,0,31,46,0,0,0,0,0,0,0,0,0,32,44,0,0,0,0,12,0,13,0,0,0,19,42,0,50,0,0,0,0,45,0,27,0 | 0,0,0,0,0,16,0,49,0,0,0,0,0,0,0,0,15,0,0,0,34,0,0,0,0,37,0,0,0,0,0,0,46,0,14,0,0,0,0,30 | 23,0,0,0,0,20,0,0,0,0,0,0,0,0,0,32,37,14,0,0,0,0,0,27,0,0,45,0,0,0,0,49,0,14,19,0,0,34,0,10 | 0,0,0,15,38,0,0,15,0,48,0,0,36,0,45,0,0,0,34,27,0,0,37,0,0,0,0,0,0,0,0,0,10,0,0,0,0,0,0,0 | 0,0,30,0,0,0,35,0,0,0,0,0,34,0,0,0,0,44,45,39,0,28,0,36,0,29,19,0,0,48,0,0,0,0,0,0,0,0,0,0 | 0,25,0,0,0,35,0,0,0,16,0,0,0,0,0,0,0,0,0,0,0,16,0,0,19,0,0,0,0,0,38,0,0,0,31,0,0,25,0,0 | 0,0,0,0,0,37,0,0,0,0,0,23,14,0,0,0,0,17,0,0,0,0,0,0,0,0,0,0,0,0,0,0,18,0,17,19,0,0,34,0 | 0,0,0,0,20,0,30,0,0,0,0,0,34,0,0,0,0,0,0,0,11,0,12,0,0,39,0,0,0,0,0,0,0,0,0,0,0,0,37,25 | 0,0,0,0,0,0,0,0,47,0,0,0,0,0,0,0,0,0,0,0,28,0,0,0,0,0,36,0,0,0,18,30,0,0,0,0,0,0,0,0 | 0,0,42,0,0,0,0,0,0,0,0,39,0,0,0,0,0,0,0,0,0,0,0,41,0,0,0,50,0,0,20,0,37,18,0,0,0,0,33,0 | 0,0,35,0,0,0,0,16,40,47,38,31,0,0,0,14,15,0,30,0,0,0,0,0,0,0,46,20,0,0,0,36,0,0,16,17,0,0,0,0 | 27,0,48,0,0,0,0,0,0,0,0,0,0,0,25,0,41,0,10,0,0,46,0,0,40,0,0,14,23,13,0,0,0,0,0,0,0,0,0,15 | 0,0,19,0,0,0,0,0,37,0,0,15,0,49,0,0,0,0,18,0,32,0,0,0,18,0,0,0,11,0,0,0,0,0,0,0,0,46,20,0 | 46,0,42,10,40,0,0,12,0,0,0,0,0,0,0,0,33,13,43,0,0,39,0,0,0,39,22,0,0,0,33,0,0,0,44,0,10,0,44,0 | 0,0,0,34,0,0,43,0,0,0,0,27,24,0,0,0,0,0,16,0,0,0,0,18,26,0,0,0,0,0,0,22,47,16,39,0,32,0,29,0 | 0,29,0,0,30,25,0,0,29,0,0,35,0,0,0,16,0,10,24,35,0,0,0,0,0,0,14,38,0,31,39,46,0,0,0,0,0,0,0,0 | 0,49,0,28,0,0,0,34,22,0,0,44,0,0,0,0,0,0,0,0,0,30,0,27,40,0,0,0,0,25,0,0,0,24,0,0,0,0,0,25 | 0,0,0,0,32,0,0,0,41,0,12,24,0,40,49,18,0,30,19,0,0,0,0,0,0,0,0,0,29,0,0,0,0,0,0,0,0,0,0,0 | 0,0,0,0,0,0,10,0,0,0,0,0,48,0,0,0,0,41,14,30,15,0,0,0,0,23,14,0,0,0,38,0,0,0,0,0,0,40,0,0 | 0,38,12,0,0,0,20,0,14,0,0,48,0,0,0,12,0,0,0,31,22,0,0,0,0,0,0,35,0,0,33,15,0,0,0,11,50,0,17,0 | 0,0,0,44,0,0,0,12,0,0,27,0,16,32,0,0,0,13,0,0,0,0,0,0,0,0,12,0,0,0,0,0,38,20,0,0,37,37,50,48 | 0,0,0,34,0,0,0,0,0,49,0,0,19,47,0,0,16,0,28,0,0,0,0,0,0,0,35,48,0,0,0,0,0,40,0,0,29,0,0,0 | 0,0,29,0,0,0,0,0,0,23,0,0,0,0,0,20,42,0,0,0,0,22,0,39,33,0,0,0,0,0,11,41,0,40,0,0,26,0,0,0 | 0,46,0,24,0,0,0,0,10,0,21,0,26,0,0,0,0,0,30,0,0,29,0,0,0,42,0,0,0,0,0,0,0,0,0,0,0,0,0,0 | 0,43,0,0,0,0,0,0,0,0,0,0,0,0,0,46,47,0,0,0,0,0,0,0,0,45,16,0,0,0,0,0,0,0,0,24,0,0,0,0 | 0,0,0,0,0,0,0,22,0,0,0,0,19,22,0,0,0,0,21,0,0,0,50,38,0,0,20,0,0,49,0,0,0,0,44,33,0,0,0,0 | 10,0,32,0,42,0,12,0,0,0,0,0,0,0,0,0,0,35,24,0,11,0,33,0,0,0,0,0,0,0,16,0,17,0,0,0,0,50,36,0 | 0,0,0,16,0,0,0,0,0,0,0,0,0,0,0,45,0,40,0,15,0,0,0,15,0,16,0,0,0,0,0,21,0,0,0,0,0,12,18,0 | 32,0,0,0,0,0,0,35,0,0,0,0,0,0,0,13,0,0,47,0,0,0,0,0,0,0,0,0,0,0,0,0,0,30,43,0,0,0,0,0 | 0,0,0,25,0,0,0,45,0,0,20,0,0,0,41,0,0,0,0,0,0,0,38,0,0,0,0,41,0,35,0,0,15,0,0,0,0,0,0,0 | 0,0,0,0,0,0,0,0,0,0,24,32,0,0,0,0,0,20,0,0,0,0,0,17,0,0,0,0,0,36,50,0,0,0,0,0,0,41,13,0 | 0,0,0,0,0,0,18,48,0,0,0,0,0,0,35,0,0,0,36,0,0,0,0,0,0,0,0,23,0,0,0,0,0,0,0,0,0,0,32,27 | 0,0,0,0,0,0,0,0,16,19,13,20,0,0,13,0,0,0,38,45,0,0,0,28,0,34,0,0,0,0,0,26,38,0,0,0,0,0,0,0 | 0,0,0,14,21,0,12,0,0,47,0,39,0,19,0,0,0,0,0,0,0,0,30,0,0,0,0,44,0,24,0,0,0,0,0,0,0,0,0,0 | 32,0,0,0,0,0,0,0,0,0,0,0,0,0,0,0,0,0,22,0,16,44,0,0,50,0,0,0,44,0,0,0,0,0,19,31,14,26,0,0 | 26,0,0,0,0,0,10,0,0,0,0,0,42,29,0,0,0,0,0,20,0,35,0,0,0,0,0,0,0,0,0,0,45,12,48,0,0,23,0,0 | 0,0,0,0,24,0,0,46,0,0,0,0,0,0,0,16,47,0,0,25,49,22,0,0,0,0,0,0,0,0,0,25,0,0,0,0,0,0,0,0 | 0,0,0,48,27,0,44,50,14,0,0,0,0,0,0,12,0,0,0,0,0,0,47,0,0,0,0,0,0,0,0,0,0,42,20,46,0,0,0,0 | 0,41,26,0,23,0,0,0,0,40,30,43,0,0,0,0,0,0,0,0,0,26,0,0,0,0,0,0,0,0,0,20,42,0,21,48,0,24,0,0 |];
